Version identifier: 22.1.1.0 | 2022-11-28 | 9160aff4d
CPXPARAM_Read_DataCheck                          1
CPXPARAM_Threads                                 1
CPXPARAM_MIP_Cuts_Covers                         1
CPXPARAM_MIP_Strategy_NodeSelect                 2
CPXPARAM_MIP_Cuts_FlowCovers                     1
CPXPARAM_MIP_Cuts_MIRCut                         1
CPXPARAM_MIP_Strategy_HeuristicFreq              5
CPXPARAM_TimeLimit                               1800
CPXPARAM_MIP_Tolerances_MIPGap                   9.9999999999999995e-07
Legacy callback                                  LD
Warning: Control callbacks may disable some MIP features.
Lazy constraint(s) or lazy constraint/branch callback is present.
    Disabling dual reductions (CPX_PARAM_REDUCE) in presolve.
    Disabling presolve reductions that prevent crushing forms (CPX_PARAM_PREREFORM).
         Disabling repeat represolve because of lazy constraint/incumbent callback.
Tried aggregator 1 time.
Reduced MIP has 100 rows, 2450 columns, and 4900 nonzeros.
Reduced MIP has 2450 binaries, 0 generals, 0 SOSs, and 0 indicators.
Presolve time = 0.00 sec. (1.56 ticks)
Probing time = 0.01 sec. (2.94 ticks)
Clique table members: 100.
MIP emphasis: balance optimality and feasibility.
MIP search method: traditional branch-and-cut.
Parallel mode: none, using 1 thread.
Root relaxation solution time = 0.00 sec. (1.27 ticks)

        Nodes                                         Cuts/
   Node  Left     Objective  IInf  Best Integer    Best Bound    ItCnt     Gap         Variable B NodeID Parent  Depth

      0     0      281.0000    18                    268.0000       42         
      0     2      282.5000    36                    282.5000       42                                 0             0
Elapsed time = 0.23 sec. (81.84 ticks, tree = 0.01 MB, solutions = 0)
     35    37      373.0000    12                    283.2500      200                  x_47_49 U     35     34     30
*    50+   50                          618.0000      283.2500            54.17%
*    50+   50                          476.0000      283.2500            40.49%
     75    62      297.0000    43      476.0000      284.0000      358   40.34%         x_31_45 D     75     74      9
    110    97      342.0000     0      476.0000      284.0000      532   40.34%         x_31_42 D    110    109     35
    143   130      429.0000     8      476.0000      284.0000      707   40.34%          x_26_1 U    143    142     58
*   146   128      integral     0      439.0000      284.0000      714   35.31%
    175   156      327.0000    42      439.0000      286.0000      860   34.85%         x_31_47 D    175    174     31
    200   181      421.0000    16      439.0000      286.0000      939   34.85%          x_42_9 D    200    199     56
    225   202      313.0000    16      439.0000      286.0000     1124   34.85%          x_10_5 D    225    224     25
    244   221      334.2500    27      439.0000      286.0000     1206   34.85%          x_42_9 D    244    243     44
    268   245      398.5000    12      439.0000      286.0000     1279   34.85%         x_27_29 D    268    267     68
    350   319      302.0000     0      439.0000      286.0000     1860   34.85%         x_38_12 U    350    348     19
Elapsed time = 5.65 sec. (3365.60 ticks, tree = 1.40 MB, solutions = 3)
    424   387      371.5000    22      439.0000      286.0000     2358   34.85%          x_15_3 U    424    423     40
    490   442      345.5000    28      439.0000      286.0000     2755   34.85%         x_26_32 D    490    489     44
    555   503      327.2000    62      439.0000      292.3333     3086   33.41%          x_3_20 D    555    554     33
    640   571      317.6667    42      439.0000      292.6667     3451   33.33%         x_14_18 D    640    639     10
    710   637      348.0000    20      439.0000      292.6667     3899   33.33%         x_38_12 D    710    709     26
*   765   684      integral     0      438.0000      292.6667     4224   33.18%
    775   689      326.3333    45      438.0000      292.6667     4304   33.18%         x_14_41 U    775    774     13
    850   760      323.6000    36      438.0000      292.6667     4639   33.18%         x_48_47 D    850    849     22
    938   844      345.6667    36      438.0000      292.6667     5066   33.18%         x_29_27 D    938    937     29
   1025   927      376.1429    22      438.0000      292.6667     5453   33.18%          x_6_20 D   1025   1024     46
*  1047   914      integral     0      423.0000      292.6667     5529   30.81%
   1114   977      383.5000    18      423.0000      293.0000     5974   30.73%          x_8_13 U   1114   1113     55
Elapsed time = 15.00 sec. (13078.89 ticks, tree = 6.98 MB, solutions = 5)
*  1140   981      integral     0      416.0000      293.0000     6111   29.57%
*  1148   603      integral     0      349.0000      293.0000     6218   16.05%
*  1159   525      integral     0      345.0000      293.0000     6414   15.07%
   1239   570      343.0000    33      345.0000      293.3333     7381   14.98%         x_48_47 D   1239   1238     16
*  1246   553      integral     0      344.0000      293.3333     7396   14.73%
*  1280   530      integral     0      342.0000      294.0000     7819   14.04%
*  1335   269      integral     0      329.0000      295.3333     8673   10.23%

Cover cuts applied:  0
Flow cuts applied:  0
Mixed integer rounding cuts applied:  0
User cuts applied:  1095

Root node processing (before b&c):
  Real time             =    0.23 sec. (82.03 ticks)
Sequential b&c:
  Real time             =   15.97 sec. (14864.48 ticks)
                          ------------
Total (root+branch&cut) =   16.20 sec. (14946.52 ticks)
